tsp_instances/TSP50/instance73.tsp
NODE_COORD_SECTION
0 43 145
1 198 75
2 43 22
3 70 106
4 5 138
5 34 81
6 43 64
7 40 136
8 130 140
9 146 136
10 86 54
11 4 103
12 164 46
13 68 120
14 45 25
15 4 24
16 36 170
17 76 59
18 200 50
19 146 118
20 80 66
21 51 28
22 173 169
23 8 86
24 23 103
25 39 134
26 187 166
27 47 95
28 185 182
29 184 4
30 147 35
31 39 57
32 108 193
33 27 45
34 107 90
35 9 167
36 199 116
37 115 168
38 196 16
39 10 43
40 51 10
41 197 189
42 51 68
43 1 141
44 106 37
45 128 73
46 12 145
47 154 101
48 125 179
49 156 14
