tsp_instances/TSP50/instance73.opt.tour
TOUR_SECTION
1
8
26
14
4
35
46
48
20
10
9
38
33
49
23
29
42
27
37
2
19
39
30
50
13
31
45
11
21
18
22
15
3
41
16
40
34
32
7
43
6
28
25
24
12
5
44
47
36
17
-1